(declare-const a_init Int)
(declare-const b_init Int)
(declare-const x_init Int)
(declare-const c_0 Int)
(declare-const c_1 Int)
(declare-const c_2 Int)
(declare-const c_3 Int)
(declare-const c_4 Int)
(declare-const c_5 Int)
(declare-const c_6 Int)
(declare-const c_7 Int)
(declare-const c_8 Int)
(declare-const c_9 Int)
(declare-const c_10 Int)
(declare-const c_11 Int)
(declare-const c_12 Int)
(declare-const c_13 Int)
(declare-const c_14 Int)
(declare-const c_15 Int)
(declare-const c_16 Int)
(declare-const c_17 Int)
(declare-const c_18 Int)
(declare-const c_19 Int)
(assert (< c_0 0))
(assert (and (>= (+ (* (- 1) a_init ) (* 1 c_1 ) ) 0) (>= (+ (* 1 a_init ) (* (- 1) c_1 ) ) 0) (>= (+ (* (- 1) b_init ) (* 1 c_2 ) ) 0) (>= (+ (* 1 b_init ) (* (- 1) c_2 ) ) 0) (>= (+ (* 1 c_3 ) (* (- 1) x_init ) ) 0) (>= (+ (* (- 1) c_3 ) (* 1 x_init ) ) 0) ))
(assert (forall ((a Real) (b Real) (x Real) ) (=> (and (>= (+ (* (- 1) 1) (* (- 1) a c_5 ) (* (- 1) b c_6 ) (* (- 1) c_4 ) (* (- 1) c_7 x ) ) 0) (>= (+ (* (- 1) a ) (* 1 b ) ) 0) (>= (+ (* 1 a ) (* (- 1) b ) ) 0) (>= (+ (* (- 1) a ) (* 1 c_1 ) ) 0) (>= (+ (* 1 a ) (* (- 1) c_1 ) ) 0) (>= (+ (* (- 1) b ) (* 1 c_2 ) ) 0) (>= (+ (* 1 b ) (* (- 1) c_2 ) ) 0) (>= (+ (* 1 c_3 ) (* (- 1) x ) ) 0) (>= (+ (* (- 1) c_3 ) (* 1 x ) ) 0) ) (>= (+ (* 1 a c_13 ) (* 1 b c_14 ) (* 1 c_12 ) (* 1 c_15 x ) ) 0) )))
(assert (forall ((a Real) (b Real) (x Real) ) (=> (and (>= (+ (* (- 1) 1) (* (- 1) a c_5 ) (* (- 1) b c_6 ) (* (- 1) c_4 ) (* (- 1) c_7 x ) ) 0) (>= (+ (* (- 1) a ) (* 1 b ) ) 0) (>= (+ (* 1 a ) (* (- 1) b ) ) 0) (>= (+ (* (- 1) a ) (* 1 c_1 ) ) 0) (>= (+ (* 1 a ) (* (- 1) c_1 ) ) 0) (>= (+ (* (- 1) b ) (* 1 c_2 ) ) 0) (>= (+ (* 1 b ) (* (- 1) c_2 ) ) 0) (>= (+ (* 1 c_3 ) (* (- 1) x ) ) 0) (>= (+ (* (- 1) c_3 ) (* 1 x ) ) 0) ) (>= (+ (* 1 a c_17 ) (* 1 b c_18 ) (* 1 c_16 ) (* 1 c_19 x ) ) 0) )))
(assert (forall ((a Real) (b Real) (x Real) ) (=> (and (>= (+ (* (- 1) 1) (* (- 1) a c_9 ) (* (- 1) b c_10 ) (* (- 1) c_11 x ) (* (- 1) c_8 ) ) 0) (>= (+ (* (- 1) a ) (* 1 b ) ) 0) (>= (+ (* 1 a ) (* (- 1) b ) ) 0) (>= (+ (* (- 1) a ) (* 1 c_1 ) ) 0) (>= (+ (* 1 a ) (* (- 1) c_1 ) ) 0) (>= (+ (* (- 1) b ) (* 1 c_2 ) ) 0) (>= (+ (* 1 b ) (* (- 1) c_2 ) ) 0) (>= (+ (* 1 c_3 ) (* (- 1) x ) ) 0) (>= (+ (* (- 1) c_3 ) (* 1 x ) ) 0) ) (>= (+ (* 1 a c_13 ) (* 1 b c_14 ) (* 1 c_12 ) (* 1 c_15 x ) ) 0) )))
(assert (forall ((a Real) (b Real) (x Real) ) (=> (and (>= (+ (* (- 1) 1) (* (- 1) a c_9 ) (* (- 1) b c_10 ) (* (- 1) c_11 x ) (* (- 1) c_8 ) ) 0) (>= (+ (* (- 1) a ) (* 1 b ) ) 0) (>= (+ (* 1 a ) (* (- 1) b ) ) 0) (>= (+ (* (- 1) a ) (* 1 c_1 ) ) 0) (>= (+ (* 1 a ) (* (- 1) c_1 ) ) 0) (>= (+ (* (- 1) b ) (* 1 c_2 ) ) 0) (>= (+ (* 1 b ) (* (- 1) c_2 ) ) 0) (>= (+ (* 1 c_3 ) (* (- 1) x ) ) 0) (>= (+ (* (- 1) c_3 ) (* 1 x ) ) 0) ) (>= (+ (* 1 a c_17 ) (* 1 b c_18 ) (* 1 c_16 ) (* 1 c_19 x ) ) 0) )))
(assert (forall ((a Real) (b Real) (x Real) ) (=> (and (>= (+ (* (- 1) 1) (* 1 a ) (* (- 1) b ) ) 0) (>= (+ (* (- 1) a ) (* 1 c_1 ) ) 0) (>= (+ (* 1 a ) (* (- 1) c_1 ) ) 0) (>= (+ (* (- 1) b ) (* 1 c_2 ) ) 0) (>= (+ (* 1 b ) (* (- 1) c_2 ) ) 0) (>= (+ (* 1 c_3 ) (* (- 1) x ) ) 0) (>= (+ (* (- 1) c_3 ) (* 1 x ) ) 0) ) (>= (* 1 c_0 ) 0) )))
(assert (forall ((a Real) (b Real) (x Real) ) (=> (and (>= (+ (* (- 1) 1) (* (- 1) a ) (* 1 b ) ) 0) (>= (+ (* (- 1) a ) (* 1 c_1 ) ) 0) (>= (+ (* 1 a ) (* (- 1) c_1 ) ) 0) (>= (+ (* (- 1) b ) (* 1 c_2 ) ) 0) (>= (+ (* 1 b ) (* (- 1) c_2 ) ) 0) (>= (+ (* 1 c_3 ) (* (- 1) x ) ) 0) (>= (+ (* (- 1) c_3 ) (* 1 x ) ) 0) ) (>= (* 1 c_0 ) 0) )))
(assert (forall ((a Real) (b Real) (x Real) ) (=> (and (>= (+ (* (- 1) 1) (* (- 1) a c_5 ) (* (- 1) a c_7 ) (* (- 1) b c_6 ) (* 1 b c_7 ) (* (- 1) c_4 ) (* 1 c_7 ) (* (- 1) c_7 x ) ) 0) (>= (* 1 x ) 0) (>= (+ (* 1 a c_5 ) (* 1 b c_6 ) (* 1 c_4 ) (* 1 c_7 x ) ) 0) (>= (+ (* 1 a c_9 ) (* 1 b c_10 ) (* 1 c_11 x ) (* 1 c_8 ) ) 0) ) (>= (+ (* 1 a c_13 ) (* 1 a c_15 ) (* 1 b c_14 ) (* (- 1) b c_15 ) (* 1 c_12 ) (* (- 1) c_15 ) (* 1 c_15 x ) ) 0) )))
(assert (forall ((a Real) (b Real) (x Real) ) (=> (and (>= (+ (* (- 1) 1) (* (- 1) a c_5 ) (* (- 1) a c_7 ) (* (- 1) b c_6 ) (* 1 b c_7 ) (* (- 1) c_4 ) (* 1 c_7 ) (* (- 1) c_7 x ) ) 0) (>= (* 1 x ) 0) (>= (+ (* 1 a c_5 ) (* 1 b c_6 ) (* 1 c_4 ) (* 1 c_7 x ) ) 0) (>= (+ (* 1 a c_9 ) (* 1 b c_10 ) (* 1 c_11 x ) (* 1 c_8 ) ) 0) ) (>= (+ (* 1 a c_17 ) (* 1 a c_19 ) (* 1 b c_18 ) (* (- 1) b c_19 ) (* 1 c_16 ) (* (- 1) c_19 ) (* 1 c_19 x ) ) 0) )))
(assert (forall ((a Real) (b Real) (x Real) ) (=> (and (>= (+ (* (- 1) 1) (* (- 1) a c_11 ) (* (- 1) a c_9 ) (* (- 1) b c_10 ) (* 1 b c_11 ) (* 1 c_11 ) (* (- 1) c_11 x ) (* (- 1) c_8 ) ) 0) (>= (* 1 x ) 0) (>= (+ (* 1 a c_5 ) (* 1 b c_6 ) (* 1 c_4 ) (* 1 c_7 x ) ) 0) (>= (+ (* 1 a c_9 ) (* 1 b c_10 ) (* 1 c_11 x ) (* 1 c_8 ) ) 0) ) (>= (+ (* 1 a c_13 ) (* 1 a c_15 ) (* 1 b c_14 ) (* (- 1) b c_15 ) (* 1 c_12 ) (* (- 1) c_15 ) (* 1 c_15 x ) ) 0) )))
(assert (forall ((a Real) (b Real) (x Real) ) (=> (and (>= (+ (* (- 1) 1) (* (- 1) a c_11 ) (* (- 1) a c_9 ) (* (- 1) b c_10 ) (* 1 b c_11 ) (* 1 c_11 ) (* (- 1) c_11 x ) (* (- 1) c_8 ) ) 0) (>= (* 1 x ) 0) (>= (+ (* 1 a c_5 ) (* 1 b c_6 ) (* 1 c_4 ) (* 1 c_7 x ) ) 0) (>= (+ (* 1 a c_9 ) (* 1 b c_10 ) (* 1 c_11 x ) (* 1 c_8 ) ) 0) ) (>= (+ (* 1 a c_17 ) (* 1 a c_19 ) (* 1 b c_18 ) (* (- 1) b c_19 ) (* 1 c_16 ) (* (- 1) c_19 ) (* 1 c_19 x ) ) 0) )))
(assert (forall ((a Real) (b Real) (x Real) ) (=> (and (>= (+ (* (- 1) 1) (* (- 1) a c_5 ) (* (- 1) a c_7 ) (* (- 1) b c_6 ) (* 1 b c_7 ) (* (- 1) c_4 ) (* 1 c_7 ) (* (- 1) c_7 x ) ) 0) (>= (* 1 x ) 0) (>= (+ (* 1 a c_13 ) (* 1 b c_14 ) (* 1 c_12 ) (* 1 c_15 x ) ) 0) (>= (+ (* 1 a c_17 ) (* 1 b c_18 ) (* 1 c_16 ) (* 1 c_19 x ) ) 0) ) (>= (+ (* 1 a c_13 ) (* 1 a c_15 ) (* 1 b c_14 ) (* (- 1) b c_15 ) (* 1 c_12 ) (* (- 1) c_15 ) (* 1 c_15 x ) ) 0) )))
(assert (forall ((a Real) (b Real) (x Real) ) (=> (and (>= (+ (* (- 1) 1) (* (- 1) a c_5 ) (* (- 1) a c_7 ) (* (- 1) b c_6 ) (* 1 b c_7 ) (* (- 1) c_4 ) (* 1 c_7 ) (* (- 1) c_7 x ) ) 0) (>= (* 1 x ) 0) (>= (+ (* 1 a c_13 ) (* 1 b c_14 ) (* 1 c_12 ) (* 1 c_15 x ) ) 0) (>= (+ (* 1 a c_17 ) (* 1 b c_18 ) (* 1 c_16 ) (* 1 c_19 x ) ) 0) ) (>= (+ (* 1 a c_17 ) (* 1 a c_19 ) (* 1 b c_18 ) (* (- 1) b c_19 ) (* 1 c_16 ) (* (- 1) c_19 ) (* 1 c_19 x ) ) 0) )))
(assert (forall ((a Real) (b Real) (x Real) ) (=> (and (>= (+ (* (- 1) 1) (* (- 1) a c_11 ) (* (- 1) a c_9 ) (* (- 1) b c_10 ) (* 1 b c_11 ) (* 1 c_11 ) (* (- 1) c_11 x ) (* (- 1) c_8 ) ) 0) (>= (* 1 x ) 0) (>= (+ (* 1 a c_13 ) (* 1 b c_14 ) (* 1 c_12 ) (* 1 c_15 x ) ) 0) (>= (+ (* 1 a c_17 ) (* 1 b c_18 ) (* 1 c_16 ) (* 1 c_19 x ) ) 0) ) (>= (+ (* 1 a c_13 ) (* 1 a c_15 ) (* 1 b c_14 ) (* (- 1) b c_15 ) (* 1 c_12 ) (* (- 1) c_15 ) (* 1 c_15 x ) ) 0) )))
(assert (forall ((a Real) (b Real) (x Real) ) (=> (and (>= (+ (* (- 1) 1) (* (- 1) a c_11 ) (* (- 1) a c_9 ) (* (- 1) b c_10 ) (* 1 b c_11 ) (* 1 c_11 ) (* (- 1) c_11 x ) (* (- 1) c_8 ) ) 0) (>= (* 1 x ) 0) (>= (+ (* 1 a c_13 ) (* 1 b c_14 ) (* 1 c_12 ) (* 1 c_15 x ) ) 0) (>= (+ (* 1 a c_17 ) (* 1 b c_18 ) (* 1 c_16 ) (* 1 c_19 x ) ) 0) ) (>= (+ (* 1 a c_17 ) (* 1 a c_19 ) (* 1 b c_18 ) (* (- 1) b c_19 ) (* 1 c_16 ) (* (- 1) c_19 ) (* 1 c_19 x ) ) 0) )))
(assert (forall ((a Real) (b Real) (x Real) ) (=> (and (>= (+ (* (- 1) 1) (* (- 1) x ) ) 0) (>= (+ (* 1 a c_5 ) (* 1 b c_6 ) (* 1 c_4 ) (* 1 c_7 x ) ) 0) (>= (+ (* 1 a c_9 ) (* 1 b c_10 ) (* 1 c_11 x ) (* 1 c_8 ) ) 0) ) (>= (* 1 c_0 ) 0) )))
(assert (forall ((a Real) (b Real) (x Real) ) (=> (and (>= (+ (* (- 1) 1) (* (- 1) x ) ) 0) (>= (+ (* 1 a c_13 ) (* 1 b c_14 ) (* 1 c_12 ) (* 1 c_15 x ) ) 0) (>= (+ (* 1 a c_17 ) (* 1 b c_18 ) (* 1 c_16 ) (* 1 c_19 x ) ) 0) ) (>= (* 1 c_0 ) 0) )))
(check-sat)
(get-model)

